unsat
(forall ((A (_ BitVec 20))
         (B (_ BitVec 20))
         (C (_ BitVec 20))
         (D (_ BitVec 20))
         (E (_ BitVec 20))
         (F (_ BitVec 20))
         (G (_ BitVec 20))
         (H (_ BitVec 20))
         (I (_ BitVec 20))
         (J (_ BitVec 20))
         (K (_ BitVec 20))
         (L (_ BitVec 20))
         (M (_ BitVec 20))
         (N (_ BitVec 20))
         (O (_ BitVec 14))
         (P (_ BitVec 20))
         (Q (_ BitVec 20))
         (R (_ BitVec 20))
         (S (_ BitVec 20))
         (T (_ BitVec 20))
         (U (_ BitVec 20))
         (V (_ BitVec 1))
         (W (_ BitVec 20))
         (X (_ BitVec 20))
         (Y (_ BitVec 38))
         (Z (_ BitVec 20))
         (A1 (_ BitVec 17))
         (B1 (_ BitVec 18))
         (C1 (_ BitVec 20))
         (D1 (_ BitVec 22))
         (E1 (_ BitVec 20))
         (F1 (_ BitVec 20))
         (G1 (_ BitVec 1))
         (H1 (_ BitVec 1))
         (I1 (_ BitVec 20))
         (J1 (_ BitVec 20))
         (K1 (_ BitVec 20))
         (L1 (_ BitVec 1))
         (M1 (_ BitVec 1))
         (N1 (_ BitVec 20))
         (O1 (_ BitVec 20))
         (P1 (_ BitVec 38))
         (Q1 (_ BitVec 20))
         (R1 (_ BitVec 1))
         (S1 (_ BitVec 20))
         (T1 (_ BitVec 20))
         (U1 (_ BitVec 18))
         (V1 (_ BitVec 22))
         (W1 (_ BitVec 20))
         (X1 (_ BitVec 20))
         (Y1 (_ BitVec 20))
         (Z1 (_ BitVec 1))
         (A2 (_ BitVec 20))
         (B2 (_ BitVec 20))
         (C2 (_ BitVec 20))
         (D2 (_ BitVec 18))
         (E2 (_ BitVec 17))
         (F2 (_ BitVec 22))
         (G2 (_ BitVec 1))
         (H2 (_ BitVec 14))
         (I2 (_ BitVec 38))
         (J2 (_ BitVec 20))
         (K2 (_ BitVec 16))
         (L2 (_ BitVec 38))
         (M2 (_ BitVec 30))
         (N2 (_ BitVec 30))
         (O2 (_ BitVec 20))
         (P2 (_ BitVec 20))
         (Q2 (_ BitVec 1))
         (R2 (_ BitVec 1))
         (S2 (_ BitVec 20))
         (T2 (_ BitVec 20))
         (U2 (_ BitVec 20))
         (V2 (_ BitVec 20))
         (W2 (_ BitVec 16))
         (X2 (_ BitVec 17))
         (Y2 (_ BitVec 20))
         (Z2 (_ BitVec 30))
         (A3 (_ BitVec 1))
         (B3 (_ BitVec 38))
         (C3 (_ BitVec 30)))
  (! (let ((a!1 ((_ extract 22 2)
                  (bvadd (concat #b0 D1) (concat #b000 ((_ extract 21 2) F2)))))
           (a!2 (or ((_ bit2bool 1) N1)
                    (not (= L #x00000))
                    (not (= ((_ extract 1 1) P) #b1))))
           (a!3 (or ((_ bit2bool 2) X)
                    ((_ bit2bool 1) A1)
                    ((_ bit2bool 2) A1)
                    (= ((_ extract 3 2) F2) (bvmul #b11 ((_ extract 1 0) D1)))))
           (a!4 (or ((_ bit2bool 0) A1)
                    ((_ bit2bool 1) A1)
                    ((_ bit2bool 2) A1)
                    (= ((_ extract 3 2) F2) (bvmul #b11 ((_ extract 1 0) D1)))))
           (a!5 (and (= ((_ extract 3 0) Y) #x0)
                     (= ((_ extract 37 4) Y)
                        (bvmul #b1111111111111111111111111111111111
                               (concat #x000 V1))))))
     (let ((a!6 (and (or (= P1 #b00000000000000000000000000000000000000)
                         ((_ bit2bool 0) X2)
                         ((_ bit2bool 1) X2)
                         ((_ bit2bool 2) X2))
                     (not ((_ bit2bool 1) O))
                     (not ((_ bit2bool 0) O))
                     (not (= ((_ extract 17 17) U1) #b1))
                     (or ((_ bit2bool 0) N1)
                         (not ((_ bit2bool 0) L))
                         (= ((_ extract 0 0) P) #b1))
                     (not (= ((_ extract 17 17) D2) #b1))
                     (or ((_ bit2bool 2) U1)
                         ((_ bit2bool 1) B1)
                         ((_ bit2bool 0) U1)
                         ((_ bit2bool 1) U1)
                         (not ((_ bit2bool 1) D2)))
                     (or (not ((_ bit2bool 0) Z1)) (not (= L1 #b0)))
                     (or ((_ bit2bool 2) D1)
                         ((_ bit2bool 1) A1)
                         (= a!1 #b000000000000000000000))
                     a!2
                     (or ((_ bit2bool 0) A1)
                         ((_ bit2bool 1) A1)
                         (= ((_ extract 1 0) F2) #b00))
                     a!3
                     (or ((_ bit2bool 1) A1)
                         ((_ bit2bool 2) A1)
                         (= a!1 #b000000000000000000000))
                     a!4
                     (or ((_ bit2bool 0) E2)
                         ((_ bit2bool 1) E2)
                         ((_ bit2bool 2) E2)
                         a!5))))
       (= (INV!slice!1 A
                       B
                       C
                       D
                       E
                       F
                       G
                       H
                       I
                       J
                       K
                       L
                       M
                       N
                       O
                       P
                       Q
                       R
                       S
                       T
                       U
                       V
                       W
                       X
                       Y
                       Z
                       A1
                       B1
                       C1
                       D1
                       E1
                       F1
                       G1
                       H1
                       I1
                       J1
                       K1
                       L1
                       M1
                       N1
                       O1
                       P1
                       Q1
                       R1
                       S1
                       T1
                       U1
                       V1
                       W1
                       X1
                       Y1
                       Z1
                       A2
                       B2
                       C2
                       D2
                       E2
                       F2
                       G2
                       H2
                       I2
                       J2
                       K2
                       L2
                       M2
                       N2
                       O2
                       P2
                       Q2
                       R2
                       S2
                       T2
                       U2
                       V2
                       W2
                       X2
                       Y2
                       Z2
                       A3
                       B3
                       C3)
          a!6)))
     :weight 0))
